NAME : LRC1_6_4
TYPE : PDPTW
DIMENSION : 150
EDGE_WEIGHT_TYPE : EXACT_2D
NODE_COORD_SECTION
1 1 0
2 150 0
3 0 0
4 -14 867
5 0 2
6 83 113
7 3 199
8 541 10
9 61 84
10 10 305
11 103 20
12 0 354
13 -20 0
14 0 7
15 0 1074
16 8 230
17 1114 10
18 55 68
19 10 302
20 180 -40
21 340 0
22 -14 0
23 0 12
24 203 233
25 13 257
26 193 10
27 57 155
28 10 0
29 26 -10
30 126 0
31 -7 123
32 0 17
33 227 257
34 18 89
35 1089 0
36 84 231
37 10 0
38 240 -11
39 429 0
40 -20 0
41 0 22
42 138 168
43 23 180
44 1143 10
45 240 73
46 10 531
47 265 20
48 0 65
49 20 0
50 434 27
51 174 204
52 28 160
53 1153 10
54 289 130
55 10 204
56 255 5
57 0 406
58 38 0
59 611 32
60 0 1097
61 33 115
62 1139 10
63 250 228
64 10 0
65 89 22
66 0 628
67 20 0
68 562 37
69 0 1163
70 38 159
71 1046 10
72 47 277
73 10 0
74 269 -42
75 465 0
76 -20 0
77 0 42
78 136 166
79 43 74
80 1114 10
81 140 140
82 10 0
83 241 2
84 0 108
85 20 98
86 206 47
87 0 1129
88 48 136
89 1113 10
90 250 124
91 10 556
92 299 -20
93 292 0
94 10 213
95 541 52
96 0 1078
97 53 212
98 1089 10
99 259 59
100 10 348
101 104 -33
102 295 0
103 20 165
104 263 57
105 629 659
106 58 57
107 1100 10
108 232 121
109 10 281
110 132 10
111 0 84
112 24 0
113 147 62
114 0 1157
115 63 143
116 1157 10
117 248 41
118 10 577
119 263 -20
120 25 0
121 20 0
122 104 67
123 113 143
124 68 259
125 286 10
126 38 139
127 10 331
128 41 -10
129 154 0
130 10 0
131 515 72
132 0 1053
133 73 102
134 873 10
135 43 286
136 10 582
137 160 -10
138 186 0
139 13 109
140 448 77
141 0 1068
142 78 88
143 1123 10
144 122 127
145 10 304
146 63 10
147 0 506
148 16 0
149 160 82
150 0 1063
PICKUP_AND_DELIVERY_SECTION
1 0 0 0 0 0 0
2 0 0 0 0 1206 0
3 0 0 0 0 0 125
4 0 0 0 0 10 10
5 0 0 0 0 107 107
6 0 0 0 0 0 0
7 0 0 0 0 13 13
8 0 0 0 0 259 0
9 0 0 0 0 0 0
10 0 0 0 0 5 0
11 0 0 0 0 83 83
12 0 0 0 0 143 143
13 0 0 0 0 10 10
14 0 0 0 0 141 141
15 0 0 0 0 422 422
16 0 0 0 0 -18 -18
17 0 0 0 0 0 0
18 0 0 0 0 143 143
19 0 0 0 0 10 0
20 0 0 0 0 1113 0
21 0 0 0 0 159 159
22 0 0 0 0 10 10
23 0 0 0 0 4 4
24 0 0 0 0 0 0
25 0 0 0 0 10 10
26 0 0 0 0 254 0
27 0 0 0 0 102 102
28 0 0 0 0 15 15
29 0 0 0 0 595 595
30 0 0 0 0 231 231
31 0 0 0 0 10 10
32 0 0 0 0 132 132
33 0 0 0 0 170 170
34 0 0 0 0 14 14
35 0 0 0 0 615 0
36 0 0 0 0 0 0
37 0 0 0 0 20 20
38 0 0 0 0 1100 0
39 0 0 0 0 110 110
40 0 0 0 0 10 10
41 0 0 0 0 74 74
42 0 0 0 0 343 343
43 0 0 0 0 -10 -10
44 0 0 0 0 0 0
45 0 0 0 0 0 0
46 0 0 0 0 25 0
47 0 0 0 0 1018 0
48 0 0 0 0 134 134
49 0 0 0 0 10 10
50 0 0 0 0 59 59
51 0 0 0 0 0 0
52 0 0 0 0 10 10
53 0 0 0 0 87 0
54 0 0 0 0 0 0
55 0 0 0 0 30 0
56 0 0 0 0 1035 0
57 0 0 0 0 234 234
58 0 0 0 0 0 0
59 0 0 0 0 208 208
60 0 0 0 0 0 0
61 0 0 0 0 -17 -17
62 0 0 0 0 0 0
63 0 0 0 0 0 0
64 0 0 0 0 35 35
65 0 0 0 0 1135 0
66 0 0 0 0 105 105
67 0 0 0 0 10 10
68 0 0 0 0 183 183
69 0 0 0 0 93 93
70 0 0 0 0 15 15
71 0 0 0 0 377 0
72 0 0 0 0 163 163
73 0 0 0 0 40 40
74 0 0 0 0 476 476
75 0 0 0 0 212 212
76 0 0 0 0 10 10
77 0 0 0 0 149 149
78 0 0 0 0 0 0
79 0 0 0 0 24 24
80 0 0 0 0 287 0
81 0 0 0 0 0 0
82 0 0 0 0 45 45
83 0 0 0 0 1105 0
84 0 0 0 0 222 222
85 0 0 0 0 10 10
86 0 0 0 0 124 124
87 0 0 0 0 0 0
88 0 0 0 0 -20 -20
89 0 0 0 0 0 0
90 0 0 0 0 0 0
91 0 0 0 0 50 0
92 0 0 0 0 407 407
93 0 0 0 0 258 258
94 0 0 0 0 10 10
95 0 0 0 0 47 47
96 0 0 0 0 167 167
97 0 0 0 0 20 20
98 0 0 0 0 587 0
99 0 0 0 0 0 0
100 0 0 0 0 55 0
101 0 0 0 0 1150 0
102 0 0 0 0 77 77
103 0 0 0 0 10 10
104 0 0 0 0 45 45
105 0 0 0 0 533 533
106 0 0 0 0 23 23
107 0 0 0 0 229 0
108 0 0 0 0 0 0
109 0 0 0 0 60 0
110 0 0 0 0 1090 0
111 0 0 0 0 18 18
112 0 0 0 0 10 10
113 0 0 0 0 113 113
114 0 0 0 0 0 0
115 0 0 0 0 20 20
116 0 0 0 0 162 0
117 0 0 0 0 0 0
118 0 0 0 0 65 0
119 0 0 0 0 1015 0
120 0 0 0 0 109 109
121 0 0 0 0 10 10
122 0 0 0 0 71 71
123 0 0 0 0 0 0
124 0 0 0 0 10 10
125 0 0 0 0 362 0
126 0 0 0 0 337 337
127 0 0 0 0 70 0
128 0 0 0 0 1029 0
129 0 0 0 0 255 255
130 0 0 0 0 10 10
131 0 0 0 0 122 122
132 0 0 0 0 0 0
133 0 0 0 0 17 17
134 0 0 0 0 198 0
135 0 0 0 0 0 0
136 0 0 0 0 75 0
137 0 0 0 0 1106 0
138 0 0 0 0 172 172
139 0 0 0 0 10 10
140 0 0 0 0 22 22
141 0 0 0 0 0 0
142 0 0 0 0 1 1
143 0 0 0 0 565 0
144 0 0 0 0 0 0
145 0 0 0 0 80 0
146 0 0 0 0 1065 0
147 0 0 0 0 53 53
148 0 0 0 0 10 10
149 0 0 0 0 281 281
150 0 0 0 0 337 337
DEPOT_SECTION
1 
-1
EOF
